data/solutions/planning/wellformed/moderate/weighting/wellformed_moderate_instance92_gurobi.sol
Elapsed time: 0.47
Nodes explored: 1161
Nodes left: 59
Relative gap: 0.0
Upper bound: 54921.0
Lower bound: 54921
C[0]=872.0
C[1]=872.0
C[2]=871.0
C[3]=871.0
C[4]=871.0
C[5]=871.0
y[0]=4
y[1]=1
y[2]=3
y[3]=4
y[4]=5
y[5]=4
y[6]=3
y[7]=1
y[8]=1
y[9]=1
y[10]=1
y[11]=1
y[12]=3
y[13]=2
y[14]=3
y[15]=0
y[16]=3
y[17]=5
y[18]=4
y[19]=5
y[20]=2
y[21]=2
y[22]=0
y[23]=0
y[24]=3
y[25]=5
y[26]=2
y[27]=2
y[28]=5
y[29]=0
y[30]=0
y[31]=4
y[32]=5
y[33]=4
y[34]=1
y[35]=5
y[36]=0
y[37]=3
y[38]=2
y[39]=4
y[40]=0
y[41]=2
y[42]=2
y[43]=2
y[44]=5
y[45]=3
y[46]=4
y[47]=3
y[48]=3
y[49]=1
